c WARNING: for repeatability, setting FPU to use double precision
d VARIABLES            138690       
d CONSTRAINTS          504520       
c ============================[ Problem Statistics ]=============================
c |                                                                             |
c |  Number of variables:        138690                                         |
c |  Number of clauses:          504520                                         |
c |  Parse time:                   0.08 s                                       |
c |                                                                             |
c ============================[ Search Statistics ]==============================
c | Conflicts |          ORIGINAL         |          LEARNT          | Progress |
c |           |    Vars  Clauses Literals |    Limit  Clauses Lit/Cl |          |
c ===============================================================================
c |       100 |  109114   428094  1075249 |   156967      100     52 | 21.325 % |
c |       250 |  109114   428094  1075249 |   172664      250     26 | 21.325 % |
c |       475 |  109114   428094  1075249 |   189931      475     19 | 21.325 % |
c |       812 |  109114   428094  1075249 |   208924      812     21 | 21.325 % |
c |      1318 |  109114   428094  1075249 |   229816     1318     19 | 21.325 % |
c |      2077 |  109114   428094  1075249 |   252798     2077     16 | 21.325 % |
c |      3216 |  109114   428094  1075249 |   278078     3216     22 | 21.325 % |
c |      4924 |  109114   428094  1075249 |   305885     4924     23 | 21.325 % |
c |      7486 |  109114   428094  1075249 |   336474     7486     38 | 21.325 % |
c |     11330 |  109114   428094  1075249 |   370121    11330     47 | 21.325 % |
c |     17096 |  109114   428094  1075249 |   407134    17096     59 | 21.325 % |
c |     25745 |  109114   428094  1075249 |   447847    25745     63 | 21.325 % |
c |     38719 |  109114   428094  1075249 |   492632    38719     84 | 21.325 % |
c |     58180 |  109114   428094  1075249 |   541895    58180     95 | 21.325 % |
c |     87372 |  109113   428090  1075239 |   596084    87371    121 | 21.326 % |
c ===============================================================================
c restarts              : 349
c conflicts             : 128975         (2355 /sec)
c decisions             : 999952         (0.00 % random) (18261 /sec)
c propagations          : 316422394      (5778410 /sec)
c conflict literals     : 18074884       (12.18 % deleted)
d RESTARTS             349
d FAILURES             128975       
d NODES                999952       
d BACKTRACKS           999952       
d PROPAGATIONS         316422394    
d NOGOODSIZE           140.14 
d MEMORY               122.00 
d TIME                 54.7594 

s SATISFIABLE
